139 139
1 1 1 1 1 1 1 1 1 1 1 1 1 1 1 1 1 1 1 1 1 1 1 1 1 1 1 1 1 1 1 1 1 1 1 1 1 1 1 1 1 1 1 1 1 1 1 1 1 1 1 1 1 1 1 1 1 1 1 1 1 1 1 1 1 1 1 1 1 1 1 1 1 1 1 1 1 1 1 1 1 1 1 1 1 1 1 1 1 1 1 1 1 1 1 1 1 1 1 1 1 1 1 1 1 1 1 1 1 1 1 1 1 1 1 1 1 1 1 1 1 1 1 1 1 1 1 1 1 1 1 1 1 1 1 1 1 1 1
50
1 2 4 5 7 8 9 10 12 13 17 21 22 25 27 30 31 38 42 44 46 47 48 50 54 60 62 65 66 68 69 70 73 74 77 80 81 82 92 110 111 112 115 117 121 122 126 132 136 138
54
1 2 8 9 17 18 21 22 25 27 33 38 41 42 44 46 48 50 52 54 55 56 57 58 59 60 63 65 66 67 69 70 72 73 74 77 78 79 80 81 82 83 92 95 98 101 109 111 117 121 122 124 126 138
5
3 20 40 129 139
56
1 4 5 7 8 10 12 13 17 19 21 23 25 31 38 42 44 46 47 48 50 54 56 60 62 65 66 67 68 69 70 73 74 77 80 81 82 92 93 96 106 110 111 112 113 114 115 117 118 121 122 125 126 132 136 138
54
1 4 5 7 8 10 12 13 16 17 19 23 25 30 31 38 42 44 46 47 48 50 54 60 62 65 66 68 69 70 73 74 77 80 81 82 92 93 96 106 110 111 112 113 114 115 116 117 121 125 126 132 136 138
25
6 11 14 15 24 26 28 29 32 37 43 45 49 51 61 64 76 91 94 103 123 131 134 135 137
42
1 4 5 7 8 10 12 13 19 23 25 31 38 42 44 47 48 50 54 60 62 65 66 68 69 73 74 77 82 92 93 96 106 110 111 112 114 115 117 125 132 136
67
1 2 4 5 7 8 9 10 12 13 16 17 18 21 22 25 27 30 31 33 38 41 42 44 46 47 48 50 54 55 56 57 60 62 65 66 67 68 69 70 73 74 77 78 79 80 81 82 86 87 92 101 108 109 110 111 112 113 115 117 121 122 125 126 132 136 138
52
1 2 8 9 17 18 21 22 25 27 33 38 39 41 42 44 46 50 52 54 55 56 57 58 59 63 65 66 67 69 70 72 75 77 78 79 80 82 83 88 92 95 98 101 102 111 117 120 121 122 124 138
51
1 4 5 7 8 10 12 13 17 19 23 25 31 38 42 44 46 47 48 50 54 60 62 65 66 68 69 70 73 74 77 80 81 82 92 93 96 106 110 111 112 113 114 115 117 121 125 126 132 136 138
22
6 11 14 24 26 28 29 32 37 43 45 49 51 61 64 76 94 103 123 131 135 137
54
1 4 5 7 8 10 12 13 16 17 19 25 30 31 33 38 42 44 46 47 48 50 54 60 65 66 68 69 70 73 74 77 80 81 82 86 87 92 93 96 108 109 110 111 112 114 115 117 121 125 126 127 132 136
32
1 4 5 7 8 10 12 13 25 30 31 38 42 44 46 48 54 60 62 65 68 73 74 77 80 81 82 111 112 121 136 138
26
6 11 14 15 24 26 28 29 32 37 43 45 49 51 61 64 76 91 94 103 123 130 131 134 135 137
25
6 14 15 24 26 28 29 32 37 43 45 49 61 64 76 91 94 103 104 123 130 131 134 135 137
27
5 8 12 16 25 33 38 42 47 48 50 66 69 74 75 82 87 92 108 109 114 115 125 126 127 132 136
68
1 2 4 5 8 9 10 12 17 18 21 22 25 27 38 39 41 42 44 46 48 50 52 54 55 56 57 58 59 60 63 65 66 67 68 69 70 72 73 74 77 78 79 80 81 82 83 86 88 92 95 98 101 102 109 111 112 113 115 117 120 121 122 124 126 132 136 138
44
2 8 9 17 18 21 22 27 38 39 41 42 44 46 52 55 56 57 58 59 63 65 66 67 70 72 73 77 78 79 80 83 88 92 95 98 101 102 111 120 121 122 124 138
36
4 5 7 10 12 19 23 25 31 34 38 47 48 50 54 60 66 68 69 74 92 93 96 105 106 110 112 114 115 116 117 125 126 127 132 136
6
3 20 35 40 129 139
59
1 2 4 8 9 17 18 21 22 25 27 38 39 41 42 44 46 48 50 52 54 55 56 57 58 59 60 63 65 66 67 68 69 70 72 73 74 77 78 79 80 82 83 88 92 95 98 101 102 111 112 113 117 120 121 122 124 126 138
57
1 2 8 9 17 18 21 22 25 27 38 39 41 42 44 46 48 50 52 54 55 56 57 58 59 60 63 65 66 67 69 70 72 73 74 75 77 78 79 80 82 83 88 92 95 98 101 102 111 113 117 120 121 122 124 126 138
22
4 5 7 10 19 23 31 34 47 48 54 60 62 68 74 93 106 110 112 114 132 136
27
6 11 14 15 24 26 28 29 32 37 43 45 49 51 61 64 76 85 91 94 103 123 130 131 134 135 137
63
1 2 4 5 7 8 9 10 12 13 16 17 19 21 22 25 27 30 31 38 41 42 44 46 47 48 50 54 56 60 62 65 66 67 68 69 70 73 74 77 80 81 82 87 92 93 96 109 110 111 112 113 114 115 117 121 122 125 126 127 132 136 138
26
6 11 14 15 24 26 28 29 32 37 43 45 49 51 61 64 76 91 94 103 123 130 131 134 135 137
55
1 2 8 9 17 18 21 22 25 27 38 39 41 42 44 46 48 50 52 54 55 56 57 58 59 60 63 65 66 67 69 70 72 73 77 78 79 80 81 82 83 88 92 95 98 101 102 109 111 117 120 121 122 124 138
26
6 11 14 15 24 26 28 29 32 37 43 45 49 51 61 64 76 91 94 103 123 130 131 134 135 137
27
6 11 14 15 24 26 28 29 32 37 43 45 49 51 61 64 76 91 94 103 104 123 130 131 134 135 137
22
1 5 8 12 13 25 30 42 44 46 62 65 73 77 80 81 82 86 109 111 121 138
38
1 4 5 7 8 10 12 13 19 23 25 31 38 44 47 48 54 60 62 65 66 68 69 73 74 77 80 81 82 93 110 111 112 114 115 117 132 136
26
6 11 14 15 24 26 28 29 32 37 43 45 49 51 61 64 76 91 94 103 123 130 131 134 135 137
21
2 8 9 12 16 33 42 46 50 65 69 75 80 82 86 87 108 109 121 122 126
7
19 23 34 93 96 110 114
5
20 35 40 129 139
2
36 128
27
6 11 14 15 24 26 28 29 32 37 43 45 49 51 61 64 71 76 91 94 103 123 130 131 134 135 137
73
1 2 4 5 7 8 9 10 12 13 16 17 18 19 21 22 25 27 31 38 41 42 44 46 47 48 50 52 54 55 56 57 58 60 63 65 66 67 68 69 70 73 74 77 78 79 80 81 82 83 88 92 93 95 96 98 100 101 110 111 112 113 114 115 117 118 121 122 125 126 132 136 138
30
9 17 18 21 22 27 39 41 52 53 55 57 58 59 63 67 72 78 79 80 83 88 92 98 101 102 120 121 122 124
6
3 20 35 40 129 139
50
2 8 9 17 18 21 22 25 27 38 39 41 42 46 48 50 52 54 55 56 57 58 59 60 63 65 66 67 69 70 72 77 78 79 80 83 88 92 95 98 101 102 111 113 117 120 121 122 124 138
66
1 2 4 5 7 8 9 10 12 13 16 17 18 21 22 25 27 30 33 38 41 42 44 46 47 48 50 54 55 56 57 60 65 66 67 68 69 70 73 74 75 77 78 79 80 81 82 86 87 92 93 101 108 109 111 112 114 115 117 121 122 125 126 132 136 138
25
6 11 14 15 24 26 28 29 32 37 43 45 49 51 64 76 91 94 103 123 130 131 134 135 137
50
1 2 4 5 7 8 9 10 12 13 17 18 21 22 25 27 30 31 38 42 44 46 48 50 54 60 62 65 66 67 68 69 70 73 74 77 78 80 81 82 86 92 109 111 112 121 122 132 136 138
26
6 11 14 15 24 26 28 29 32 37 43 45 49 51 61 64 76 91 94 103 123 130 131 134 135 137
54
1 2 4 5 8 9 10 12 13 17 18 21 22 25 27 30 33 38 41 42 44 46 48 50 52 54 55 56 57 60 63 65 66 67 69 70 73 74 77 78 79 80 81 82 83 86 92 101 109 111 121 122 136 138
41
1 4 5 7 8 10 12 16 19 23 25 31 38 42 47 48 50 54 60 66 68 69 74 82 92 93 96 105 106 110 111 112 114 115 116 117 125 126 127 132 136
59
1 2 4 5 7 8 10 12 13 16 17 19 21 22 23 25 27 31 38 41 42 44 46 47 48 50 54 56 60 65 66 67 68 69 70 73 74 77 80 82 92 93 96 101 110 111 112 113 114 115 117 118 121 122 125 126 132 136 138
27
6 11 14 15 24 26 28 29 32 37 43 45 49 51 61 64 76 91 94 103 104 123 130 131 134 135 137
58
1 2 4 5 7 8 9 10 12 16 17 19 21 22 25 27 33 38 41 42 44 46 47 48 50 54 56 60 65 66 69 70 73 74 75 77 80 81 82 86 87 92 93 96 108 109 111 112 114 115 117 121 122 125 126 127 132 136
21
6 11 14 24 26 28 29 32 37 43 45 49 51 61 64 76 94 103 123 131 137
42
2 9 17 18 21 22 27 38 39 41 46 52 54 55 56 57 58 59 60 63 65 66 67 68 70 72 77 78 79 83 88 92 95 98 100 101 113 117 120 121 122 124
12
39 53 57 58 63 67 79 88 98 102 120 124
68
1 2 4 5 7 8 9 10 12 13 17 19 21 22 23 25 27 31 38 41 42 44 46 47 48 50 52 54 56 57 60 65 66 67 68 69 70 73 74 77 78 79 80 82 83 88 92 93 95 96 98 100 101 110 111 112 113 114 115 117 118 121 122 125 126 132 136 138
44
2 8 9 17 18 21 22 27 38 39 41 42 46 52 55 56 57 58 59 63 65 67 69 70 72 75 77 78 79 80 83 88 92 95 98 101 102 111 113 117 120 121 122 124
48
2 4 8 9 17 18 21 22 25 27 38 41 42 46 48 50 52 54 55 56 57 58 59 60 63 65 66 67 68 69 70 73 77 78 79 80 82 83 88 92 95 98 101 111 117 121 122 124
46
2 8 9 17 18 21 22 27 38 39 41 42 46 52 53 54 55 56 57 58 59 63 65 66 67 69 70 72 75 77 78 79 80 83 88 92 95 98 101 102 111 117 120 121 122 124
34
2 9 17 18 21 22 27 38 39 41 52 53 55 56 57 58 59 63 67 72 78 79 83 88 92 95 98 100 101 102 120 121 122 124
30
2 9 17 18 21 22 27 39 41 52 55 56 57 58 59 63 67 72 78 79 83 88 95 98 101 102 120 121 122 124
60
1 2 4 5 7 8 10 12 13 17 19 21 22 23 25 27 31 38 41 42 44 46 47 48 50 52 54 56 60 62 65 66 67 68 69 70 73 74 77 80 81 82 83 92 93 95 101 110 111 112 113 114 115 117 121 122 126 132 136 138
24
6 11 14 15 24 26 28 29 32 37 45 49 51 61 64 71 76 85 91 94 123 130 131 137
24
1 4 5 7 8 10 13 23 25 30 31 44 60 62 68 73 74 77 80 81 111 112 136 138
37
2 9 17 18 21 22 27 38 39 41 46 52 53 55 56 57 58 59 63 65 67 70 72 78 79 80 83 88 92 95 98 101 102 120 121 122 124
27
6 11 14 15 24 26 28 29 32 37 43 45 49 51 61 64 76 91 94 103 104 123 130 131 134 135 137
65
1 2 4 5 7 8 9 10 12 13 17 18 21 22 25 27 30 31 33 38 41 42 44 46 48 50 52 54 55 56 57 60 63 65 66 67 68 69 70 73 74 77 78 79 80 81 82 83 86 92 95 98 101 109 111 112 113 115 117 121 122 126 132 136 138
68
1 2 4 5 7 8 9 10 12 16 17 18 19 21 22 25 27 31 38 41 42 44 46 47 48 50 52 54 56 57 60 65 66 67 68 69 70 73 74 77 78 79 80 81 82 88 92 93 95 96 98 100 101 110 111 112 113 114 115 117 118 121 122 125 126 132 136 138
55
2 4 8 9 17 18 21 22 25 27 38 39 41 42 44 46 48 52 53 54 55 56 57 58 59 60 63 65 66 67 69 70 72 74 77 78 79 80 83 88 92 95 98 100 101 102 111 113 117 118 120 121 122 124 138
52
1 4 5 7 8 10 12 13 17 19 21 23 25 31 38 42 44 47 48 52 54 56 60 62 65 66 68 69 70 74 77 82 92 93 95 96 100 110 111 112 113 114 115 117 118 121 122 125 126 132 136 138
68
1 2 4 5 7 8 9 10 12 16 17 19 21 22 25 27 31 33 38 41 42 44 46 47 48 50 54 55 56 57 60 65 66 67 68 69 70 73 74 75 77 78 79 80 81 82 87 92 93 96 101 108 109 110 111 112 113 114 115 117 118 121 122 125 126 132 136 138
57
1 2 4 5 8 9 10 12 17 18 21 22 25 27 38 41 42 44 46 48 50 52 54 55 56 57 60 63 65 66 67 68 69 70 73 74 77 78 79 80 81 82 83 88 92 95 98 101 109 111 112 113 117 121 122 124 138
3
37 61 71
30
2 9 17 18 21 22 27 39 41 52 55 57 58 59 63 67 72 78 79 80 83 88 92 98 101 102 120 121 122 124
47
1 2 4 5 7 8 10 12 13 17 18 21 22 25 27 30 31 38 42 44 46 48 50 54 56 60 62 65 66 69 70 73 74 77 78 80 81 82 86 92 109 111 112 121 122 136 138
58
1 2 4 5 7 8 10 12 13 16 17 19 21 22 23 25 31 38 42 44 46 47 48 50 54 60 62 65 66 67 68 69 70 73 74 77 80 81 82 87 92 93 96 110 111 112 113 114 115 117 118 121 122 125 126 127 132 136
16
9 16 22 33 42 50 55 57 69 75 79 86 87 108 109 126
27
6 11 14 15 24 26 28 29 32 37 43 45 49 51 61 64 76 91 94 103 104 123 130 131 134 135 137
57
1 2 4 5 7 8 9 10 12 13 17 18 21 22 25 27 30 31 38 41 42 44 46 48 50 52 54 55 56 57 60 62 65 66 67 68 69 70 73 74 77 78 79 80 81 82 86 92 101 109 111 112 121 122 132 136 138
47
2 8 9 17 18 21 22 27 38 39 41 42 44 46 52 54 55 56 57 58 59 63 65 66 67 69 70 72 73 77 78 79 80 83 88 92 95 98 101 102 111 117 120 121 122 124 138
47
2 8 9 17 18 21 22 27 38 39 41 42 46 52 53 54 55 56 57 58 59 63 65 66 67 69 70 72 75 77 78 79 80 83 88 92 95 98 101 102 111 117 120 121 122 124 138
62
1 2 4 5 8 9 10 12 13 17 18 21 22 25 27 30 31 33 38 39 41 42 44 46 48 50 54 55 56 57 60 62 63 65 66 67 69 70 72 73 74 77 78 79 80 81 82 86 87 92 101 108 109 111 112 117 121 122 124 126 136 138
36
1 2 4 5 8 10 12 13 17 25 27 30 31 38 42 44 46 50 60 62 65 66 69 70 73 74 77 80 81 82 86 109 111 121 136 138
57
1 2 4 5 7 8 9 10 12 13 16 17 21 22 25 27 30 31 33 38 42 44 46 47 48 50 54 56 60 65 66 68 69 70 73 74 77 80 81 82 86 87 92 108 109 111 112 114 115 117 121 122 125 126 132 136 138
40
2 9 17 18 21 22 27 38 39 41 46 52 54 55 56 57 58 59 60 63 65 67 70 72 78 79 83 88 92 95 98 100 101 102 113 117 120 121 122 124
3
84 89 99
3
24 61 85
22
8 12 17 30 33 42 44 46 50 65 73 75 77 80 81 82 86 87 108 109 121 138
21
8 12 16 25 33 42 50 69 74 75 80 82 86 87 92 108 109 114 115 125 126
40
9 17 18 21 22 27 38 39 41 52 53 54 55 56 57 58 59 63 66 67 70 72 78 79 83 88 90 92 95 98 100 101 102 117 118 119 120 121 122 124
3
84 89 99
7
88 90 95 98 100 118 119
24
6 14 15 24 26 28 29 32 37 43 45 49 61 64 76 91 94 103 123 130 131 134 135 137
77
1 2 4 5 7 8 9 10 12 16 17 18 19 21 22 25 27 38 39 41 42 44 46 47 48 50 52 54 55 56 57 58 60 63 65 66 67 68 69 70 72 73 74 77 78 79 80 82 83 87 88 92 93 95 96 98 100 101 102 108 110 111 112 113 114 115 117 118 120 121 122 124 125 126 132 136 138
37
4 5 7 10 12 19 23 25 31 34 38 42 47 48 50 54 60 66 68 69 74 92 93 96 105 110 112 113 114 115 116 117 118 125 126 132 136
26
6 11 14 15 24 26 28 29 32 37 43 45 49 51 61 64 76 91 94 103 123 130 131 134 135 137
39
2 9 17 18 21 22 27 38 41 52 54 55 56 57 58 59 60 63 65 66 67 68 70 78 79 83 88 90 92 95 98 100 101 113 117 120 121 122 124
32
4 5 7 10 12 19 25 34 38 47 48 50 54 66 68 69 74 92 93 96 105 110 112 114 115 116 117 118 125 126 132 136
1
97
40
2 9 17 18 21 22 27 38 39 41 52 53 54 55 56 57 58 59 63 65 66 67 70 72 78 79 83 88 90 92 95 98 100 101 102 117 120 121 122 124
3
84 89 99
19
38 52 54 58 66 67 68 83 88 90 92 95 98 100 101 117 118 119 120
48
2 8 9 17 18 21 22 27 38 39 41 42 46 48 52 54 55 56 57 58 59 60 63 65 66 67 69 70 72 77 78 79 80 83 88 92 95 98 100 101 102 111 113 117 120 121 122 124
28
9 17 18 21 22 27 39 41 53 55 57 58 59 63 67 72 78 79 83 88 92 98 101 102 120 121 122 124
25
6 11 14 15 24 26 28 29 32 37 43 45 49 51 64 76 91 94 103 123 130 131 134 135 137
9
15 29 49 64 76 104 130 131 134
14
19 47 93 96 105 110 114 115 116 125 126 127 132 133
15
4 5 7 10 19 23 47 106 107 110 112 114 116 132 133
3
106 107 133
18
8 12 16 33 42 50 69 75 80 82 86 87 92 108 109 121 125 126
30
2 8 12 16 17 25 27 30 33 42 44 46 50 65 69 70 73 75 77 80 81 82 86 87 108 109 121 122 126 138
39
1 4 5 7 8 10 12 19 23 25 31 34 38 47 48 54 60 66 68 69 74 92 93 96 105 106 110 111 112 113 114 115 116 117 118 125 126 132 136
60
1 2 4 5 7 8 9 10 12 13 17 18 21 22 25 27 30 31 38 41 42 44 46 47 48 50 54 55 56 57 60 62 65 66 67 68 69 70 73 74 77 78 79 80 81 82 92 101 110 111 112 113 115 117 121 122 126 132 136 138
51
1 4 5 7 8 10 12 13 17 19 21 23 25 31 38 42 44 47 48 50 54 60 62 65 66 68 69 70 73 74 77 80 82 92 93 96 106 110 111 112 113 114 115 117 118 121 125 126 132 136 138
36
4 5 8 10 17 21 22 25 38 41 48 52 54 55 60 65 66 67 68 69 70 74 83 92 93 95 101 110 111 112 113 117 118 121 122 132
41
4 5 7 10 12 16 19 23 25 31 34 38 42 47 48 50 54 60 66 68 69 74 82 87 92 93 96 105 106 110 112 114 115 116 117 125 126 127 132 133 136
42
1 4 5 7 8 10 12 16 17 19 25 31 38 42 47 48 50 54 60 65 66 68 69 74 82 87 92 93 96 105 110 111 112 114 115 116 117 125 126 127 132 136
16
5 19 47 93 96 105 106 110 114 115 116 125 126 127 132 133
63
1 2 4 5 7 8 9 10 12 17 19 21 22 25 27 31 38 41 42 47 48 50 52 54 55 56 57 60 65 66 67 68 69 70 74 78 79 80 82 83 88 92 93 95 96 98 100 101 110 111 112 113 114 115 117 118 120 121 122 125 126 132 136
21
4 38 48 54 66 67 68 69 74 88 90 92 93 96 100 110 112 113 117 118 119
5
88 90 100 118 119
32
9 17 18 21 22 27 39 41 52 53 55 57 58 59 63 67 72 78 79 83 88 92 95 98 100 101 102 117 120 121 122 124
70
1 2 4 5 8 9 10 12 13 17 18 21 22 25 27 30 33 38 39 41 42 44 46 48 50 52 54 55 56 57 58 59 60 63 65 66 67 68 69 70 72 73 74 77 78 79 80 81 82 83 86 88 92 95 98 101 102 108 109 111 112 113 117 120 121 122 124 126 136 138
60
1 2 4 8 9 17 18 21 22 25 27 33 38 39 41 42 44 46 48 50 52 54 55 56 57 58 59 60 63 65 66 67 68 69 70 72 73 74 77 78 79 80 82 83 88 92 95 98 101 102 109 111 113 117 120 121 122 124 126 138
26
6 11 14 15 24 26 28 29 32 37 43 45 49 51 61 64 76 91 94 103 123 130 131 134 135 137
34
2 9 17 18 21 22 27 39 41 52 53 55 56 57 58 59 63 67 70 72 78 79 80 83 88 92 95 98 101 102 120 121 122 124
37
4 5 7 8 10 12 16 19 25 38 42 47 48 50 54 66 68 69 74 82 87 92 93 96 105 108 110 112 114 115 116 117 125 126 127 132 136
50
1 2 4 5 8 10 12 16 17 19 21 22 25 33 38 42 47 48 50 54 60 65 66 68 69 74 75 80 82 87 92 93 96 105 108 109 110 111 112 114 115 116 117 121 122 125 126 127 132 136
17
12 16 19 25 47 50 74 105 114 115 116 125 126 127 132 133 136
2
36 128
6
3 20 35 40 129 139
24
14 15 24 26 28 29 32 37 43 45 49 61 64 76 91 94 103 104 123 130 131 134 135 137
27
6 11 14 15 24 26 28 29 32 37 43 45 49 51 61 64 76 91 94 103 104 123 130 131 134 135 137
46
1 4 5 7 8 10 12 16 17 19 23 25 31 38 42 44 47 48 50 54 60 65 66 68 69 74 77 82 92 93 96 105 106 110 111 112 113 114 115 116 117 125 126 127 132 136
7
105 106 107 114 116 127 133
24
6 14 15 24 26 28 29 32 37 43 45 49 64 76 91 94 103 104 123 130 131 134 135 137
24
6 11 14 15 24 26 28 29 32 37 43 45 49 64 76 91 94 103 123 130 131 134 135 137
49
1 4 5 7 8 10 12 13 16 17 19 23 25 31 38 42 44 46 47 48 50 54 60 62 65 66 68 69 73 74 77 80 81 82 92 93 96 110 111 112 114 115 117 121 125 126 127 132 136
26
6 11 14 15 24 26 28 29 32 37 43 45 49 51 61 64 76 91 94 103 123 130 131 134 135 137
45
1 2 4 5 8 9 10 13 17 18 21 22 25 27 30 38 41 42 44 46 48 54 60 62 65 66 67 68 69 70 73 77 78 79 80 81 82 86 92 109 111 112 121 122 138
6
3 20 35 40 129 139
